144 141 140 139 136 135 134 133 132 131 130 129 137 138 124 69 70 68 67 66 65 72 71 123 122 121 120 118 119 73 74 75 76 64 63 61 60 59 58 57 81 80 79 62 78 77 88 89 90 87 86 85 82 83 84 51 50 52 53 56 55 54 49 48 47 44 43 42 39 40 41 557 556 552 553 554 555 45 46 91 92 93 94 95 96 97 98 99 100 102 101 551 550 559 558 34 33 35 38 37 36 32 30 31 29 28 25 26 27 567 566 565 564 563 562 561 560 549 548 478 477 479 480 476 475 482 481 483 485 484 536 537 539 538 540 176 177 178 187 188 534 535 487 486 488 533 532 531 530 489 490 491 492 493 524 525 526 523 522 521 520 517 519 518 494 495 471 472 473 474 570 569 568 17 18 19 20 21 24 22 23 12 13 14 15 16 11 10 9 8 7 6 5 4 3 2 1 0 573 572 571 468 469 467 466 464 465 470 496 497 463 462 461 460 459 458 457 456 455 454 439 443 444 445 442 446 447 448 449 450 441 440 453 452 499 500 501 498 502 503 504 505 308 309 310 311 451 312 313 316 314 315 374 375 376 377 378 379 380 381 390 389 388 391 392 393 394 395 396 371 372 370 369 368 367 365 364 363 362 361 358 359 360 401 400 399 398 397 407 408 385 387 386 382 431 433 434 435 436 438 437 432 430 429 428 427 426 425 424 423 422 421 420 416 415 414 413 417 419 418 412 411 410 383 384 409 405 406 404 403 402 356 357 355 354 353 352 351 350 349 348 347 346 345 344 343 341 340 339 338 337 336 335 334 283 284 285 286 287 280 281 282 279 278 277 276 290 289 288 333 332 331 330 342 366 329 328 327 326 325 324 323 373 322 321 320 319 317 318 305 306 304 307 303 301 302 508 507 506 237 509 510 511 513 516 515 514 512 527 528 529 234 235 236 238 239 240 243 244 242 241 300 299 298 297 296 295 294 293 291 292 275 274 273 272 271 269 270 268 267 266 265 264 263 262 258 259 261 260 257 256 255 253 254 252 251 250 249 248 245 247 246 216 217 215 214 213 212 211 210 209 193 219 218 220 221 222 224 223 232 233 231 230 229 228 227 189 225 226 190 191 192 186 182 183 185 184 194 195 196 197 205 206 207 208 203 204 202 201 200 199 198 181 179 180 169 171 170 172 175 174 173 108 109 111 110 107 542 541 543 544 545 546 547 103 104 105 106 117 126 125 127 128 116 115 114 112 113 161 160 162 168 163 167 166 164 165 154 155 159 156 153 157 158 145 146 147 148 152 149 150 151 142 143